max: 13.4 XA1 + 13.4XA2 + 13.4XA3 + 10.2 XB1+ 10.2XB2 + 10.2XB3 + 8.6 XC1 + 8.6XC2 + 8.6XC3 + 13.2 XD1 + 13.2XD2 + 13.2XD3 + 18 XE1+ 18XE2 + 18XE3 + 16.6 XF1 + 16.6XF2 + 16.6XF3 + 15.4 XG1 + 15.4XG2 + 15.4XG3 + 16.8 XH1 +  16.8XH2 +  16.8XH3 + 12 XI1 + 12XI2 + 12XI3 + 13.4 XJ1 + 13.4XJ2 + 13.4XJ3 + 14 XK1 + 14XK2 + 14XK3;    

XA1 + XA2 + XA3 = 1;
XB1 + XB2 + XB3 = 1;
XC1 + XC2 + XC3 = 1;
XD1 + XD2 + XD3 = 1;
XE1 + XE2 + XE3 = 1;
XF1 + XF2 + XF3 = 1;
XG1 + XG2 + XG3 = 1;
XH1 + XH2 + XH3 = 1;
XI1 + XI2 + XI3 = 1;
XJ1 + XJ2 + XJ3 = 1;
XK1 + XK2 + XK3 = 1;

XA1 + XB1 + XC1 + XD1 + XE1 + XF1 + XG1 + XH1 + XI1 + XJ1 + XK1 + XA2 + XB2 + XC2 + XD2 + XE2 + XF2 + XG2 + XH2 + XI2 + XJ2 + XK2 + XA3 + XB3 + XC3 + XD3 + XE3 + XF3 + XG3 + XH3 + XI3 + XJ3 + XK3 = 11;

3 <= XA1 + XB1 + XC1 + XD1 + XE1 + XF1 + XG1 + XH1 + XI1 + XJ1 + XK1 <= 4;
3 <= XA2 + XB2 + XC2 + XD2 + XE2 + XF2 + XG2 + XH2 + XI2 + XJ2 + XK2 <= 4;
3 <= XA3 + XB3 + XC3 + XD3 + XE3 + XF3 + XG3 + XH3 + XI3 + XJ3 + XK3 <= 4;


